Maximize
OBJ: 2 x +  y + 4 z + 2 w + 4 a + 8 b + 9 c
Subject To
s1: 2 x + y <= 50
s2: 3 y + z <= 60
s2: 4 z + w <= 70
s4: w + a <= 1995
s5: 3 w + b + c <= 467
s6: 5 x + c + b => 2
s7: x => 0
s8: y => 0
s9: z => 0
s10: w => 0
s11: a => 0
s12: b => 0
s13: c => 0
End

